projected/problems_b25_r0_d7_m100_s666/_DIMACS/b25_d7_r0_s666_054.cnf
p cnf 213 336 25
c p show 1 2 3 4 5 6 7 8 9 10 11 12 13 14 15 16 17 18 19 20 21 22 23 24 25
-26 -22 8 0
-27 11 0
-27 17 0
-28 27 0
-28 26 0
-29 -13 -11 0
-30 -9 -21 0
-31 30 0
-31 29 0
-32 31 0
-32 28 0
-33 -22 0
-33 -21 0
-34 1 0
-34 -24 0
-35 34 0
-35 33 0
-36 13 0
-36 -6 0
-37 -10 0
-37 -13 0
-38 37 36 0
-39 38 0
-39 35 0
-40 39 32 0
-41 -12 11 0
-42 -8 -19 0
-43 42 0
-43 41 0
-44 5 0
-44 7 0
-45 -3 -11 0
-46 45 0
-46 44 0
-47 46 43 0
-48 4 0
-48 7 0
-49 17 0
-49 -9 0
-50 49 0
-50 48 0
-51 -8 0
-51 -10 0
-52 16 -15 0
-53 52 0
-53 51 0
-54 53 0
-54 50 0
-55 54 0
-55 47 0
-56 55 0
-56 40 0
-57 -20 0
-57 8 0
-58 3 0
-58 -2 0
-59 2 0
-59 -3 0
-60 59 58 0
-61 60 0
-61 57 0
-62 -19 25 0
-63 -5 -18 0
-64 63 0
-64 62 0
-65 64 61 0
-66 20 5 0
-67 -5 24 0
-68 67 0
-68 66 0
-69 9 11 0
-70 -23 21 0
-71 70 69 0
-72 71 68 0
-73 -9 0
-73 -11 0
-74 23 0
-74 -21 0
-75 74 0
-75 73 0
-76 -20 0
-76 -5 0
-77 5 0
-77 -24 0
-78 77 76 0
-79 78 75 0
-80 79 0
-80 72 0
-81 80 0
-81 65 0
-82 -7 -14 0
-83 -24 0
-83 -15 0
-84 83 0
-84 82 0
-85 24 -1 0
-86 -4 9 0
-87 86 0
-87 85 0
-88 87 0
-88 84 0
-89 14 0
-89 15 0
-90 52 0
-90 89 0
-91 -22 18 0
-92 -21 0
-92 -1 0
-93 92 91 0
-94 93 90 0
-95 94 88 0
-96 95 81 0
-97 96 56 0
-98 -9 0
-98 -21 0
-99 25 -5 0
-100 99 0
-100 98 0
-101 -5 0
-101 1 0
-102 -1 0
-102 5 0
-103 102 101 0
-104 13 0
-104 -10 0
-105 10 0
-105 -13 0
-106 105 104 0
-107 106 0
-107 103 0
-108 107 100 0
-109 -13 0
-109 9 0
-110 -9 0
-110 13 0
-111 110 109 0
-112 -8 21 0
-113 112 111 0
-114 -7 0
-114 2 0
-115 -2 0
-115 7 0
-116 115 114 0
-117 -25 0
-117 -3 0
-118 117 116 0
-119 118 0
-119 113 0
-120 119 0
-120 108 0
-121 13 -9 0
-122 9 -13 0
-123 122 0
-123 121 0
-124 8 0
-124 -21 0
-125 124 0
-125 123 0
-126 7 -2 0
-127 2 -7 0
-128 127 0
-128 126 0
-129 25 3 0
-130 129 0
-130 128 0
-131 130 125 0
-132 9 21 0
-133 -25 0
-133 5 0
-134 133 132 0
-135 5 -1 0
-136 1 -5 0
-137 136 0
-137 135 0
-138 -13 10 0
-139 -10 13 0
-140 139 0
-140 138 0
-141 140 137 0
-142 141 0
-142 134 0
-143 142 0
-143 131 0
-144 143 120 0
-145 -9 8 0
-146 25 0
-146 -18 0
-147 146 145 0
-148 -13 11 0
-149 17 0
-149 1 0
-150 149 0
-150 148 0
-151 150 0
-151 147 0
-152 -21 0
-152 17 0
-153 -17 0
-153 21 0
-154 153 152 0
-155 -13 0
-156 155 154 0
-157 -17 16 0
-158 -16 0
-158 15 0
-159 158 157 0
-160 159 156 0
-161 160 151 0
-162 21 -17 0
-163 17 -21 0
-164 163 0
-164 162 0
-165 13 0
-166 165 0
-166 164 0
-167 17 0
-167 -16 0
-168 52 0
-168 167 0
-169 168 0
-169 166 0
-170 9 0
-170 -8 0
-171 -25 18 0
-172 171 0
-172 170 0
-173 13 0
-173 -11 0
-174 -17 -1 0
-175 174 173 0
-176 175 172 0
-177 176 169 0
-178 177 0
-178 161 0
-179 178 144 0
-180 -8 -12 0
-181 6 -25 0
-182 181 180 0
-183 -11 0
-183 -22 0
-184 25 0
-184 -21 0
-185 184 183 0
-186 185 182 0
-187 -5 3 0
-188 -21 -16 0
-189 188 0
-189 187 0
-190 21 0
-190 23 0
-191 -9 0
-191 -14 0
-192 191 0
-192 190 0
-193 192 0
-193 189 0
-194 193 186 0
-195 3 0
-195 -23 0
-196 -2 10 0
-197 196 195 0
-198 24 7 0
-199 4 0
-199 -8 0
-200 199 0
-200 198 0
-201 200 197 0
-202 16 0
-202 9 0
-203 3 0
-203 -4 0
-204 203 0
-204 202 0
-205 -17 0
-205 -2 0
-206 5 17 0
-207 -17 -5 0
-208 207 0
-208 206 0
-209 208 205 0
-210 209 0
-210 204 0
-211 210 201 0
-212 211 194 0
-213 212 0
-213 179 0
213 0
97 0
-158 -52 0
-73 -69 0
-69 -73 0
-70 -74 0
-71 -75 0
-75 -71 0
-66 -76 0
-67 -77 0
-68 -78 0
-123 -111 0
-112 -124 0
-124 -112 0
-125 -113 0
-113 -125 0
-128 -116 0
-129 -117 0
-130 -118 0
-118 -130 0
-119 -131 0
-132 -98 0
-98 -132 0
-99 -133 0
-100 -134 0
-137 -103 0
-140 -106 0
-141 -107 0
-107 -141 0
-108 -142 0
-142 -108 0
-164 -154 0
-154 -164 0
-155 -165 0
-156 -166 0
-157 -167 0
-159 -168 0
-160 -169 0
-169 -160 0
-170 -145 0
-145 -170 0
-171 -146 0
-146 -171 0
-147 -172 0
-148 -173 0
-173 -148 0
-174 -149 0
-175 -150 0
-150 -175 0
-151 -176 0
