projected/problems_b25_r0_d7_m100_s666/b25_d7_r0_s666_054.smt2
(set-logic QF_UF)
(declare-fun A0 () Bool)
(declare-fun A1 () Bool)
(declare-fun A2 () Bool)
(declare-fun A3 () Bool)
(declare-fun A4 () Bool)
(declare-fun A5 () Bool)
(declare-fun A6 () Bool)
(declare-fun A7 () Bool)
(declare-fun A8 () Bool)
(declare-fun A9 () Bool)
(declare-fun A10 () Bool)
(declare-fun A11 () Bool)
(declare-fun A12 () Bool)
(declare-fun A13 () Bool)
(declare-fun A14 () Bool)
(declare-fun A15 () Bool)
(declare-fun A16 () Bool)
(declare-fun A17 () Bool)
(declare-fun A18 () Bool)
(declare-fun A19 () Bool)
(declare-fun A20 () Bool)
(declare-fun A21 () Bool)
(declare-fun A22 () Bool)
(declare-fun A23 () Bool)
(declare-fun A24 () Bool)
(assert (let ((.def_0 (not A21))) (let ((.def_1 (or .def_0 A7))) (let ((.def_2 (and A10 A16))) (let ((.def_3 (and .def_2 .def_1))) (let ((.def_4 (not .def_3))) (let ((.def_5 (and A12 A10))) (let ((.def_6 (and A8 A20))) (let ((.def_7 (or .def_6 .def_5))) (let ((.def_8 (or .def_7 .def_4))) (let ((.def_9 (not A20))) (let ((.def_10 (and .def_0 .def_9))) (let ((.def_11 (not A0))) (let ((.def_12 (or .def_11 A23))) (let ((.def_13 (not .def_12))) (let ((.def_14 (and .def_13 .def_10))) (let ((.def_15 (not A12))) (let ((.def_16 (or .def_15 A5))) (let ((.def_17 (or A9 A12))) (let ((.def_18 (and .def_17 .def_16))) (let ((.def_19 (not .def_18))) (let ((.def_20 (and .def_19 .def_14))) (let ((.def_21 (not .def_20))) (let ((.def_22 (and .def_21 .def_8))) (let ((.def_23 (not .def_22))) (let ((.def_24 (not A11))) (let ((.def_25 (or .def_24 A10))) (let ((.def_26 (not .def_25))) (let ((.def_27 (and A7 A18))) (let ((.def_28 (or .def_27 .def_26))) (let ((.def_29 (not A6))) (let ((.def_30 (not A4))) (let ((.def_31 (or .def_30 .def_29))) (let ((.def_32 (not .def_31))) (let ((.def_33 (and A2 A10))) (let ((.def_34 (not .def_33))) (let ((.def_35 (and .def_34 .def_32))) (let ((.def_36 (not .def_35))) (let ((.def_37 (and .def_36 .def_28))) (let ((.def_38 (not A3))) (let ((.def_39 (or .def_38 .def_29))) (let ((.def_40 (not .def_39))) (let ((.def_41 (not A16))) (let ((.def_42 (or .def_41 A8))) (let ((.def_43 (not .def_42))) (let ((.def_44 (and .def_43 .def_40))) (let ((.def_45 (not A9))) (let ((.def_46 (not A7))) (let ((.def_47 (and .def_46 .def_45))) (let ((.def_48 (not A15))) (let ((.def_49 (and .def_48 A14))) (let ((.def_50 (not .def_49))) (let ((.def_51 (and .def_50 .def_47))) (let ((.def_52 (and .def_51 .def_44))) (let ((.def_53 (not .def_52))) (let ((.def_54 (or .def_53 .def_37))) (let ((.def_55 (not .def_54))) (let ((.def_56 (and .def_55 .def_23))) (let ((.def_57 (not .def_56))) (let ((.def_58 (not A19))) (let ((.def_59 (and .def_58 A7))) (let ((.def_60 (not .def_59))) (let ((.def_61 (= A1 A2))) (let ((.def_62 (or .def_61 .def_60))) (let ((.def_63 (not A24))) (let ((.def_64 (and A18 .def_63))) (let ((.def_65 (not .def_64))) (let ((.def_66 (not A17))) (let ((.def_67 (or .def_30 .def_66))) (let ((.def_68 (and .def_67 .def_65))) (let ((.def_69 (not .def_68))) (let ((.def_70 (and .def_69 .def_62))) (let ((.def_71 (not .def_70))) (let ((.def_72 (not A10))) (let ((.def_73 (not A8))) (let ((.def_74 (and .def_73 .def_72))) (let ((.def_75 (not .def_74))) (let ((.def_76 (not A22))) (let ((.def_77 (or .def_76 A20))) (let ((.def_78 (or .def_77 .def_75))) (let ((.def_79 (not .def_78))) (let ((.def_80 (or A19 A4))) (let ((.def_81 (or .def_30 A23))) (let ((.def_82 (and .def_81 .def_80))) (let ((.def_83 (= .def_82 .def_79))) (let ((.def_84 (and .def_83 .def_71))) (let ((.def_85 (not .def_84))) (let ((.def_86 (and A6 A13))) (let ((.def_87 (or A23 A14))) (let ((.def_88 (or .def_87 .def_86))) (let ((.def_89 (or A23 .def_11))) (let ((.def_90 (not .def_89))) (let ((.def_91 (or .def_38 A8))) (let ((.def_92 (not .def_91))) (let ((.def_93 (or .def_92 .def_90))) (let ((.def_94 (or .def_93 .def_88))) (let ((.def_95 (not .def_94))) (let ((.def_96 (and A13 A14))) (let ((.def_97 (not .def_96))) (let ((.def_98 (or .def_49 .def_97))) (let ((.def_99 (not .def_98))) (let ((.def_100 (and A21 .def_66))) (let ((.def_101 (or A20 A0))) (let ((.def_102 (and .def_101 .def_100))) (let ((.def_103 (not .def_102))) (let ((.def_104 (or .def_103 .def_99))) (let ((.def_105 (or .def_104 .def_95))) (let ((.def_106 (not .def_105))) (let ((.def_107 (and .def_106 .def_85))) (let ((.def_108 (and .def_107 .def_57))) (let ((.def_109 (= .def_73 .def_15))) (let ((.def_110 (or .def_46 A20))) (let ((.def_111 (not .def_110))) (let ((.def_112 (and .def_111 .def_109))) (let ((.def_113 (not .def_112))) (let ((.def_114 (not A1))) (let ((.def_115 (= .def_114 .def_29))) (let ((.def_116 (or A24 A2))) (let ((.def_117 (and .def_116 .def_115))) (let ((.def_118 (not .def_117))) (let ((.def_119 (and .def_118 .def_113))) (let ((.def_120 (or A8 A20))) (let ((.def_121 (not .def_120))) (let ((.def_122 (or A24 .def_30))) (let ((.def_123 (and .def_122 .def_121))) (let ((.def_124 (= .def_11 .def_30))) (let ((.def_125 (= A9 A12))) (let ((.def_126 (or .def_125 .def_124))) (let ((.def_127 (not .def_126))) (let ((.def_128 (or .def_127 .def_123))) (let ((.def_129 (not .def_128))) (let ((.def_130 (= .def_129 .def_119))) (let ((.def_131 (= .def_41 .def_9))) (let ((.def_132 (not .def_131))) (let ((.def_133 (or .def_15 .def_15))) (let ((.def_134 (or .def_133 .def_132))) (let ((.def_135 (or .def_41 A15))) (let ((.def_136 (or .def_49 .def_135))) (let ((.def_137 (or .def_136 .def_134))) (let ((.def_138 (not .def_137))) (let ((.def_139 (and A8 .def_46))) (let ((.def_140 (not .def_139))) (let ((.def_141 (or .def_63 A17))) (let ((.def_142 (not .def_141))) (let ((.def_143 (or .def_142 .def_140))) (let ((.def_144 (or .def_15 A10))) (let ((.def_145 (not .def_144))) (let ((.def_146 (or .def_41 .def_11))) (let ((.def_147 (or .def_146 .def_145))) (let ((.def_148 (not .def_147))) (let ((.def_149 (and .def_148 .def_143))) (let ((.def_150 (= .def_149 .def_138))) (let ((.def_151 (not .def_150))) (let ((.def_152 (and .def_151 .def_130))) (let ((.def_153 (not .def_152))) (let ((.def_154 (and A7 A11))) (let ((.def_155 (not .def_154))) (let ((.def_156 (or A5 .def_63))) (let ((.def_157 (or .def_156 .def_155))) (let ((.def_158 (not .def_157))) (let ((.def_159 (or A10 A21))) (let ((.def_160 (not .def_159))) (let ((.def_161 (and A24 .def_9))) (let ((.def_162 (or .def_161 .def_160))) (let ((.def_163 (not .def_162))) (let ((.def_164 (and .def_163 .def_158))) (let ((.def_165 (not .def_164))) (let ((.def_166 (or .def_30 A2))) (let ((.def_167 (and A20 A15))) (let ((.def_168 (not .def_167))) (let ((.def_169 (and .def_168 .def_166))) (let ((.def_170 (not .def_169))) (let ((.def_171 (or .def_9 .def_76))) (let ((.def_172 (not A13))) (let ((.def_173 (and .def_73 .def_172))) (let ((.def_174 (not .def_173))) (let ((.def_175 (or .def_174 .def_171))) (let ((.def_176 (or .def_175 .def_170))) (let ((.def_177 (not .def_176))) (let ((.def_178 (or .def_177 .def_165))) (let ((.def_179 (not .def_178))) (let ((.def_180 (and A2 .def_76))) (let ((.def_181 (or .def_114 A9))) (let ((.def_182 (or .def_181 .def_180))) (let ((.def_183 (not .def_182))) (let ((.def_184 (or A23 A6))) (let ((.def_185 (not .def_184))) (let ((.def_186 (or .def_38 A7))) (let ((.def_187 (or .def_186 .def_185))) (let ((.def_188 (and .def_187 .def_183))) (let ((.def_189 (and A15 A8))) (let ((.def_190 (and A2 .def_38))) (let ((.def_191 (and .def_190 .def_189))) (let ((.def_192 (not .def_191))) (let ((.def_193 (and .def_41 .def_114))) (let ((.def_194 (= A16 .def_30))) (let ((.def_195 (or .def_194 .def_193))) (let ((.def_196 (not .def_195))) (let ((.def_197 (or .def_196 .def_192))) (let ((.def_198 (and .def_197 .def_188))) (let ((.def_199 (and .def_198 .def_179))) (let ((.def_200 (not .def_199))) (let ((.def_201 (and .def_200 .def_153))) (let ((.def_202 (not .def_201))) (let ((.def_203 (or .def_202 .def_108))) (let ((.def_204 (not .def_203))) .def_204))))))))))))))))))))))))))))))))))))))))))))))))))))))))))))))))))))))))))))))))))))))))))))))))))))))))))))))))))))))))))))))))))))))))))))))))))))))))))))))))))))))))))))))))))))))))))))))))))))))))))))))
(check-sat)
